Route #1: 3 12 85 20 56 13 62 0
Route #2: 1 93 83 73 47 44 8 0
Route #3: 10 48 82 72 51 34 53 25 91 69 0
Route #4: 6 14 19 52 35 30 9 38 0
Route #5: 4 90 40 70 80 0
Route #6: 61 98 66 92 65 0
Route #7: 2 87 54 31 45 50 76 22 57 0
Route #8: 15 60 24 49 28 97 23 88 71 63 0
Route #9: 16 18 78 89 46 67 32 26 86 33 74 99 0
Route #10: 7 55 39 11 21 79 100 96 42 17 0
Route #11: 5 43 68 37 27 58 29 95 81 0
Route #12: 36 84 75 77 94 64 59 41 0
Cost 312258
